n = 30
Q1 = [0 0 0 0 0 28 0 0 0 0 0 38 0 8 16 0 0 0 21 10 26 0 27 25 39 12 43 0 16 0; 0 0 30 26 27 39 32 38 0 5 24 50 0 14 0 0 31 0 0 8 0 0 15 0 18 26 0 30 43 22; 0 0 0 0 20 0 0 0 22 0 0 12 0 0 0 0 14 0 0 28 11 23 0 38 0 0 0 0 0 0; 0 0 0 0 31 0 0 50 32 42 0 0 0 45 7 0 0 38 29 0 47 0 0 0 0 0 9 0 0 15; 0 0 0 0 0 29 30 0 20 17 0 0 9 0 0 0 0 0 0 0 0 0 0 0 12 0 0 45 6 33; 0 0 0 0 0 0 11 0 35 5 44 0 41 0 0 10 14 48 0 0 0 0 27 42 0 0 22 21 18 0; 0 0 0 0 0 0 0 0 0 24 40 0 25 24 0 0 0 48 0 5 0 16 47 20 25 0 19 0 0 0; 0 0 0 0 0 0 0 0 0 0 33 0 27 46 0 0 0 0 0 29 0 28 0 0 0 0 45 18 0 23; 0 0 0 0 0 0 0 0 0 15 0 0 0 0 0 0 15 0 0 7 30 44 38 0 45 22 41 7 29 7; 0 0 0 0 0 0 0 0 0 0 0 33 0 31 0 42 0 40 19 0 0 38 0 0 35 42 20 0 12 0; 0 0 0 0 0 0 0 0 0 0 0 0 38 0 0 35 0 0 0 45 29 0 9 30 0 0 0 0 39 18; 0 0 0 0 0 0 0 0 0 0 0 0 15 0 22 0 0 0 5 0 46 9 49 43 33 0 20 0 12 0; 0 0 0 0 0 0 0 0 0 0 0 0 0 12 19 31 47 0 0 0 12 5 48 0 8 0 44 21 0 39; 0 0 0 0 0 0 0 0 0 0 0 0 0 0 27 0 0 0 18 27 24 0 0 0 20 0 31 0 23 15; 0 0 0 0 0 0 0 0 0 0 0 0 0 0 0 16 0 0 27 0 0 0 41 29 0 0 0 25 45 0; 0 0 0 0 0 0 0 0 0 0 0 0 0 0 0 0 31 0 0 44 15 0 8 0 6 12 0 0 42 28; 0 0 0 0 0 0 0 0 0 0 0 0 0 0 0 0 0 0 23 0 5 39 0 0 15 0 21 39 0 0; 0 0 0 0 0 0 0 0 0 0 0 0 0 0 0 0 0 0 0 0 0 17 18 0 0 0 16 0 0 8; 0 0 0 0 0 0 0 0 0 0 0 0 0 0 0 0 0 0 0 0 48 0 0 5 0 12 0 0 8 0; 0 0 0 0 0 0 0 0 0 0 0 0 0 0 0 0 0 0 0 0 0 26 15 0 0 37 0 32 26 0; 0 0 0 0 0 0 0 0 0 0 0 0 0 0 0 0 0 0 0 0 0 40 36 5 26 0 5 31 0 0; 0 0 0 0 0 0 0 0 0 0 0 0 0 0 0 0 0 0 0 0 0 0 0 12 0 50 10 21 0 0; 0 0 0 0 0 0 0 0 0 0 0 0 0 0 0 0 0 0 0 0 0 0 0 40 0 0 0 0 0 0; 0 0 0 0 0 0 0 0 0 0 0 0 0 0 0 0 0 0 0 0 0 0 0 0 0 0 0 36 21 11; 0 0 0 0 0 0 0 0 0 0 0 0 0 0 0 0 0 0 0 0 0 0 0 0 0 5 0 13 0 10; 0 0 0 0 0 0 0 0 0 0 0 0 0 0 0 0 0 0 0 0 0 0 0 0 0 0 0 21 0 0; 0 0 0 0 0 0 0 0 0 0 0 0 0 0 0 0 0 0 0 0 0 0 0 0 0 0 0 12 8 19; 0 0 0 0 0 0 0 0 0 0 0 0 0 0 0 0 0 0 0 0 0 0 0 0 0 0 0 0 0 0; 0 0 0 0 0 0 0 0 0 0 0 0 0 0 0 0 0 0 0 0 0 0 0 0 0 0 0 0 0 10; 0 0 0 0 0 0 0 0 0 0 0 0 0 0 0 0 0 0 0 0 0 0 0 0 0 0 0 0 0 0]
Q2 = [0.0 0.0 0.0 0.0 0.0 19.0 0.0 0.0 0.0 0.0 0.0 12.0 0.0 46.0 43.0 0.0 0.0 0.0 32.0 46.0 5.0 0.0 5.0 1.0 2.0 41.0 7.0 0.0 38.0 0.0; 0.0 0.0 11.0 3.0 11.0 0.0 4.0 12.0 0.0 46.0 41.0 0.0 0.0 43.0 0.0 0.0 14.0 0.0 0.0 44.0 0.0 0.0 37.0 0.0 35.0 15.0 0.0 14.0 6.0 46.0; 0.0 0.0 0.0 0.0 50.0 0.0 0.0 0.0 36.0 0.0 0.0 38.0 0.0 0.0 0.0 0.0 41.0 0.0 0.0 3.0 45.0 34.0 0.0 5.0 0.0 0.0 0.0 0.0 0.0 0.0; 0.0 0.0 0.0 0.0 19.0 0.0 0.0 0.0 12.0 1.0 0.0 0.0 0.0 2.0 49.0 0.0 0.0 4.0 8.0 0.0 1.0 0.0 0.0 0.0 0.0 0.0 43.0 0.0 0.0 42.0; 0.0 0.0 0.0 0.0 0.0 19.0 17.0 0.0 47.0 36.0 0.0 0.0 41.0 0.0 0.0 0.0 0.0 0.0 0.0 0.0 0.0 0.0 0.0 0.0 39.0 0.0 0.0 3.0 44.0 16.0; 0.0 0.0 0.0 0.0 0.0 0.0 49.0 0.0 15.0 47.0 2.0 0.0 2.0 0.0 0.0 44.0 42.0 0.0 0.0 0.0 0.0 0.0 2.0 6.0 0.0 0.0 47.0 39.0 42.0 0.0; 0.0 0.0 0.0 0.0 0.0 0.0 0.0 0.0 0.0 44.0 1.0 0.0 19.0 45.0 0.0 0.0 0.0 2.0 0.0 47.0 0.0 38.0 3.0 35.0 25.0 0.0 38.0 0.0 0.0 0.0; 0.0 0.0 0.0 0.0 0.0 0.0 0.0 0.0 0.0 0.0 9.0 0.0 6.0 1.0 0.0 0.0 0.0 0.0 0.0 1.0 0.0 5.0 0.0 0.0 0.0 0.0 0.0 39.0 0.0 28.0; 0.0 0.0 0.0 0.0 0.0 0.0 0.0 0.0 0.0 48.0 0.0 0.0 0.0 0.0 0.0 0.0 49.0 0.0 0.0 45.0 7.0 0.0 11.0 0.0 3.0 29.0 9.0 49.0 19.0 48.0; 0.0 0.0 0.0 0.0 0.0 0.0 0.0 0.0 0.0 0.0 0.0 10.0 0.0 5.0 0.0 1.0 0.0 7.0 48.0 0.0 0.0 11.0 0.0 0.0 13.0 4.0 39.0 0.0 40.0 0.0; 0.0 0.0 0.0 0.0 0.0 0.0 0.0 0.0 0.0 0.0 0.0 0.0 0.0 0.0 0.0 7.0 0.0 0.0 0.0 5.0 16.0 0.0 44.0 3.0 0.0 0.0 0.0 0.0 3.0 34.0; 0.0 0.0 0.0 0.0 0.0 0.0 0.0 0.0 0.0 0.0 0.0 0.0 36.0 0.0 43.0 0.0 0.0 0.0 46.0 0.0 1.0 50.0 1.0 3.0 9.0 0.0 41.0 0.0 41.0 0.0; 0.0 0.0 0.0 0.0 0.0 0.0 0.0 0.0 0.0 0.0 0.0 0.0 0.0 50.0 44.0 1.0 2.0 0.0 0.0 0.0 49.0 45.0 1.0 0.0 42.0 0.0 2.0 41.0 0.0 11.0; 0.0 0.0 0.0 0.0 0.0 0.0 0.0 0.0 0.0 0.0 0.0 0.0 0.0 0.0 3.0 0.0 0.0 0.0 50.0 19.0 31.0 0.0 0.0 0.0 44.0 0.0 19.0 0.0 48.0 45.0; 0.0 0.0 0.0 0.0 0.0 0.0 0.0 0.0 0.0 0.0 0.0 0.0 0.0 0.0 0.0 47.0 0.0 0.0 16.0 0.0 0.0 0.0 9.0 16.0 0.0 0.0 0.0 19.0 1.0 0.0; 0.0 0.0 0.0 0.0 0.0 0.0 0.0 0.0 0.0 0.0 0.0 0.0 0.0 0.0 0.0 0.0 11.0 0.0 0.0 4.0 50.0 0.0 46.0 0.0 47.0 44.0 0.0 0.0 3.0 8.0; 0.0 0.0 0.0 0.0 0.0 0.0 0.0 0.0 0.0 0.0 0.0 0.0 0.0 0.0 0.0 0.0 0.0 0.0 32.0 0.0 50.0 0.0 0.0 0.0 36.0 0.0 30.0 3.0 0.0 0.0; 0.0 0.0 0.0 0.0 0.0 0.0 0.0 0.0 0.0 0.0 0.0 0.0 0.0 0.0 0.0 0.0 0.0 0.0 0.0 0.0 0.0 47.0 34.0 0.0 0.0 0.0 45.0 0.0 0.0 43.0; 0.0 0.0 0.0 0.0 0.0 0.0 0.0 0.0 0.0 0.0 0.0 0.0 0.0 0.0 0.0 0.0 0.0 0.0 0.0 0.0 0.0 0.0 0.0 49.0 0.0 44.0 0.0 0.0 47.0 0.0; 0.0 0.0 0.0 0.0 0.0 0.0 0.0 0.0 0.0 0.0 0.0 0.0 0.0 0.0 0.0 0.0 0.0 0.0 0.0 0.0 0.0 22.0 42.0 0.0 0.0 11.0 0.0 9.0 21.0 0.0; 0.0 0.0 0.0 0.0 0.0 0.0 0.0 0.0 0.0 0.0 0.0 0.0 0.0 0.0 0.0 0.0 0.0 0.0 0.0 0.0 0.0 3.0 2.0 50.0 9.0 0.0 47.0 13.0 0.0 0.0; 0.0 0.0 0.0 0.0 0.0 0.0 0.0 0.0 0.0 0.0 0.0 0.0 0.0 0.0 0.0 0.0 0.0 0.0 0.0 0.0 0.0 0.0 0.0 40.0 0.0 0.0 44.0 45.0 0.0 0.0; 0.0 0.0 0.0 0.0 0.0 0.0 0.0 0.0 0.0 0.0 0.0 0.0 0.0 0.0 0.0 0.0 0.0 0.0 0.0 0.0 0.0 0.0 0.0 7.0 0.0 0.0 0.0 0.0 0.0 0.0; 0.0 0.0 0.0 0.0 0.0 0.0 0.0 0.0 0.0 0.0 0.0 0.0 0.0 0.0 0.0 0.0 0.0 0.0 0.0 0.0 0.0 0.0 0.0 0.0 0.0 0.0 0.0 1.0 30.0 41.0; 0.0 0.0 0.0 0.0 0.0 0.0 0.0 0.0 0.0 0.0 0.0 0.0 0.0 0.0 0.0 0.0 0.0 0.0 0.0 0.0 0.0 0.0 0.0 0.0 0.0 49.0 0.0 50.0 0.0 49.0; 0.0 0.0 0.0 0.0 0.0 0.0 0.0 0.0 0.0 0.0 0.0 0.0 0.0 0.0 0.0 0.0 0.0 0.0 0.0 0.0 0.0 0.0 0.0 0.0 0.0 0.0 0.0 29.0 0.0 0.0; 0.0 0.0 0.0 0.0 0.0 0.0 0.0 0.0 0.0 0.0 0.0 0.0 0.0 0.0 0.0 0.0 0.0 0.0 0.0 0.0 0.0 0.0 0.0 0.0 0.0 0.0 0.0 42.0 47.0 32.0; 0.0 0.0 0.0 0.0 0.0 0.0 0.0 0.0 0.0 0.0 0.0 0.0 0.0 0.0 0.0 0.0 0.0 0.0 0.0 0.0 0.0 0.0 0.0 0.0 0.0 0.0 0.0 0.0 0.0 0.0; 0.0 0.0 0.0 0.0 0.0 0.0 0.0 0.0 0.0 0.0 0.0 0.0 0.0 0.0 0.0 0.0 0.0 0.0 0.0 0.0 0.0 0.0 0.0 0.0 0.0 0.0 0.0 0.0 0.0 49.0; 0.0 0.0 0.0 0.0 0.0 0.0 0.0 0.0 0.0 0.0 0.0 0.0 0.0 0.0 0.0 0.0 0.0 0.0 0.0 0.0 0.0 0.0 0.0 0.0 0.0 0.0 0.0 0.0 0.0 0.0]
Q3 = [0 71 71 71 71 15 71 71 71 71 71 3 71 6 6 71 71 71 6 15 68 71 56 60 16 3 20 71 9 71; 0 0 14 42 33 5 1 19 71 2 2 12 71 0 71 71 25 71 71 19 71 71 9 71 6 1 71 22 8 3; 0 0 0 71 1 71 71 71 5 71 71 4 71 71 71 71 7 71 71 54 7 3 71 21 71 71 71 71 71 71; 0 0 0 0 6 71 71 1 17 11 71 71 71 8 12 71 71 10 28 71 2 71 71 71 71 71 12 71 71 7; 0 0 0 0 0 10 9 71 1 17 71 71 20 71 71 71 71 71 71 71 71 71 71 71 11 71 71 10 12 5; 0 0 0 0 0 0 8 71 8 17 14 71 22 71 71 11 8 10 71 71 71 71 55 4 71 71 2 9 2 71; 0 0 0 0 0 0 0 71 71 1 19 71 2 1 71 71 71 1 71 7 71 9 2 6 2 71 6 71 71 71; 0 0 0 0 0 0 0 0 71 71 0 71 67 12 71 71 71 71 71 61 71 57 71 71 71 71 11 8 71 14; 0 0 0 0 0 0 0 0 0 3 71 71 71 71 71 71 5 71 71 6 20 6 2 71 2 4 18 5 7 11; 0 0 0 0 0 0 0 0 0 0 71 7 71 13 71 15 71 4 3 71 71 8 71 71 5 10 12 71 17 71; 0 0 0 0 0 0 0 0 0 0 0 71 17 71 71 2 71 71 71 15 22 71 4 71 71 71 71 71 2 18; 0 0 0 0 0 0 0 0 0 0 0 0 9 71 3 71 71 71 20 71 19 9 17 2 29 71 5 71 17 71; 0 0 0 0 0 0 0 0 0 0 0 0 0 9 2 61 9 71 71 71 5 16 1 71 16 71 5 2 71 15; 0 0 0 0 0 0 0 0 0 0 0 0 0 0 62 71 71 71 1 7 10 71 71 71 6 71 15 71 0 8; 0 0 0 0 0 0 0 0 0 0 0 0 0 0 0 5 71 71 2 71 71 71 8 9 71 71 71 13 6 71; 0 0 0 0 0 0 0 0 0 0 0 0 0 0 0 0 22 71 71 17 4 71 8 71 2 15 71 71 0 9; 0 0 0 0 0 0 0 0 0 0 0 0 0 0 0 0 0 71 2 71 8 2 71 71 18 71 18 19 71 71; 0 0 0 0 0 0 0 0 0 0 0 0 0 0 0 0 0 0 71 71 71 1 15 71 71 71 10 71 71 8; 0 0 0 0 0 0 0 0 0 0 0 0 0 0 0 0 0 0 0 71 17 71 71 17 71 4 71 71 8 71; 0 0 0 0 0 0 0 0 0 0 0 0 0 0 0 0 0 0 0 0 71 0 0 71 71 1 71 27 8 71; 0 0 0 0 0 0 0 0 0 0 0 0 0 0 0 0 0 0 0 0 0 10 29 1 52 71 1 11 71 71; 0 0 0 0 0 0 0 0 0 0 0 0 0 0 0 0 0 0 0 0 0 0 71 19 71 5 8 3 71 71; 0 0 0 0 0 0 0 0 0 0 0 0 0 0 0 0 0 0 0 0 0 0 0 20 71 71 71 71 71 71; 0 0 0 0 0 0 0 0 0 0 0 0 0 0 0 0 0 0 0 0 0 0 0 0 71 71 71 24 0 9; 0 0 0 0 0 0 0 0 0 0 0 0 0 0 0 0 0 0 0 0 0 0 0 0 0 6 71 3 71 1; 0 0 0 0 0 0 0 0 0 0 0 0 0 0 0 0 0 0 0 0 0 0 0 0 0 0 71 0 71 71; 0 0 0 0 0 0 0 0 0 0 0 0 0 0 0 0 0 0 0 0 0 0 0 0 0 0 0 2 13 17; 0 0 0 0 0 0 0 0 0 0 0 0 0 0 0 0 0 0 0 0 0 0 0 0 0 0 0 0 71 71; 0 0 0 0 0 0 0 0 0 0 0 0 0 0 0 0 0 0 0 0 0 0 0 0 0 0 0 0 0 1; 0 0 0 0 0 0 0 0 0 0 0 0 0 0 0 0 0 0 0 0 0 0 0 0 0 0 0 0 0 0]
